p edge 105 746
e 1 2
e 1 3
e 1 4
e 1 5
e 1 6
e 1 7
e 1 8
e 1 9
e 1 10
e 1 11
e 1 12
e 1 13
e 1 14
e 1 15
e 2 3
e 2 4
e 2 5
e 2 7
e 2 8
e 2 9
e 2 10
e 2 11
e 2 12
e 2 13
e 2 14
e 2 15
e 2 16
e 3 4
e 3 5
e 3 6
e 3 7
e 3 8
e 3 9
e 3 10
e 3 11
e 3 12
e 3 13
e 3 14
e 3 15
e 3 17
e 4 5
e 4 6
e 4 7
e 4 8
e 4 9
e 4 10
e 4 11
e 4 12
e 4 13
e 4 14
e 4 15
e 4 18
e 5 6
e 5 7
e 5 8
e 5 9
e 5 10
e 5 11
e 5 12
e 5 13
e 5 14
e 5 15
e 5 19
e 6 7
e 6 8
e 6 9
e 6 10
e 6 11
e 6 12
e 6 13
e 6 14
e 6 15
e 6 20
e 7 8
e 7 9
e 7 10
e 7 11
e 7 12
e 7 13
e 7 14
e 7 15
e 8 9
e 8 10
e 8 11
e 8 12
e 8 13
e 8 14
e 8 15
e 9 10
e 9 11
e 9 12
e 9 13
e 9 14
e 9 15
e 10 11
e 10 12
e 10 13
e 10 14
e 10 15
e 11 12
e 11 13
e 11 14
e 11 15
e 12 13
e 12 14
e 12 15
e 12 21
e 13 14
e 13 15
e 13 22
e 14 15
e 14 23
e 15 24
e 16 55
e 16 56
e 16 57
e 16 58
e 16 59
e 16 60
e 16 61
e 16 19
e 16 62
e 16 63
e 16 64
e 16 65
e 16 66
e 16 18
e 17 21
e 17 25
e 17 26
e 17 27
e 17 28
e 17 29
e 17 30
e 17 31
e 17 22
e 17 32
e 17 33
e 17 34
e 17 35
e 17 36
e 17 37
e 18 55
e 18 56
e 18 57
e 18 58
e 18 59
e 18 60
e 18 61
e 18 19
e 18 62
e 18 63
e 18 64
e 18 65
e 18 66
e 19 55
e 19 56
e 19 57
e 19 58
e 19 59
e 19 60
e 19 61
e 19 62
e 19 63
e 19 64
e 19 65
e 19 66
e 20 40
e 20 41
e 20 42
e 20 43
e 20 44
e 20 45
e 20 23
e 20 46
e 20 47
e 20 48
e 20 49
e 20 50
e 20 51
e 20 24
e 21 25
e 21 26
e 21 27
e 21 28
e 21 29
e 21 30
e 21 31
e 21 22
e 21 32
e 21 33
e 21 34
e 21 35
e 21 36
e 22 25
e 22 26
e 22 27
e 22 28
e 22 29
e 22 30
e 22 31
e 22 32
e 22 33
e 22 34
e 22 35
e 22 36
e 23 40
e 23 41
e 23 42
e 23 43
e 23 44
e 23 45
e 23 51
e 23 46
e 23 47
e 23 48
e 23 49
e 23 50
e 23 24
e 24 40
e 24 41
e 24 42
e 24 43
e 24 44
e 24 45
e 24 46
e 24 47
e 24 48
e 24 49
e 24 50
e 24 51
e 25 26
e 25 27
e 25 28
e 25 29
e 25 31
e 25 32
e 25 33
e 25 34
e 25 35
e 25 36
e 26 27
e 26 28
e 26 29
e 26 30
e 26 31
e 26 32
e 26 33
e 26 34
e 26 35
e 26 36
e 27 28
e 27 29
e 27 30
e 27 31
e 27 32
e 27 33
e 27 34
e 27 35
e 27 36
e 28 29
e 28 30
e 28 31
e 28 32
e 28 33
e 28 34
e 28 35
e 28 36
e 28 38
e 29 30
e 29 31
e 29 32
e 29 33
e 29 34
e 29 35
e 29 36
e 30 31
e 30 32
e 30 33
e 30 34
e 30 35
e 30 36
e 31 32
e 31 33
e 31 34
e 31 35
e 31 36
e 32 33
e 32 34
e 32 35
e 32 36
e 32 39
e 33 34
e 33 35
e 33 36
e 34 35
e 34 36
e 35 36
e 37 70
e 37 71
e 37 72
e 37 39
e 37 74
e 37 38
e 37 75
e 37 76
e 37 77
e 37 78
e 37 79
e 37 80
e 37 81
e 38 70
e 38 71
e 38 72
e 38 39
e 38 73
e 38 74
e 38 75
e 38 76
e 38 77
e 38 78
e 38 79
e 38 80
e 38 81
e 39 70
e 39 71
e 39 72
e 39 73
e 39 74
e 39 75
e 39 76
e 39 77
e 39 78
e 39 79
e 39 80
e 39 81
e 40 41
e 40 42
e 40 43
e 40 44
e 40 45
e 40 46
e 40 47
e 40 48
e 40 49
e 40 50
e 41 42
e 41 43
e 41 51
e 41 44
e 41 45
e 41 46
e 41 47
e 41 48
e 41 49
e 41 50
e 42 43
e 42 51
e 42 44
e 42 45
e 42 46
e 42 47
e 42 48
e 42 49
e 42 50
e 43 51
e 43 44
e 43 45
e 43 46
e 43 47
e 43 48
e 43 49
e 43 50
e 43 52
e 44 51
e 44 45
e 44 46
e 44 47
e 44 48
e 44 49
e 44 50
e 45 51
e 45 46
e 45 47
e 45 48
e 45 49
e 45 50
e 46 51
e 46 47
e 46 48
e 46 49
e 46 50
e 47 51
e 47 48
e 47 49
e 47 50
e 47 53
e 48 51
e 48 49
e 48 50
e 49 51
e 49 50
e 49 54
e 50 51
e 52 82
e 52 83
e 52 84
e 52 85
e 52 86
e 52 53
e 52 87
e 52 88
e 52 89
e 52 54
e 52 90
e 52 91
e 52 92
e 52 93
e 53 82
e 53 83
e 53 84
e 53 85
e 53 86
e 53 87
e 53 88
e 53 89
e 53 54
e 53 90
e 53 91
e 53 92
e 53 93
e 54 82
e 54 83
e 54 84
e 54 85
e 54 86
e 54 87
e 54 88
e 54 89
e 54 90
e 54 91
e 54 92
e 54 93
e 55 56
e 55 57
e 55 58
e 55 59
e 55 60
e 55 61
e 55 62
e 55 63
e 55 64
e 55 65
e 55 66
e 56 57
e 56 58
e 56 59
e 56 60
e 56 61
e 56 62
e 56 63
e 56 64
e 56 65
e 56 66
e 57 58
e 57 59
e 57 60
e 57 61
e 57 62
e 57 63
e 57 64
e 57 65
e 57 66
e 58 59
e 58 60
e 58 61
e 58 62
e 58 63
e 58 64
e 58 65
e 58 66
e 59 60
e 59 61
e 59 62
e 59 63
e 59 64
e 59 65
e 59 66
e 60 61
e 60 62
e 60 63
e 60 64
e 60 65
e 60 66
e 61 63
e 61 64
e 61 65
e 61 66
e 61 67
e 62 63
e 62 64
e 62 65
e 62 66
e 63 64
e 63 65
e 63 66
e 64 65
e 64 66
e 65 66
e 65 68
e 65 69
e 67 94
e 67 69
e 67 95
e 67 96
e 67 97
e 67 98
e 67 68
e 67 99
e 67 100
e 67 101
e 67 102
e 67 103
e 67 104
e 67 105
e 68 94
e 68 69
e 68 95
e 68 96
e 68 97
e 68 98
e 68 99
e 68 100
e 68 101
e 68 102
e 68 103
e 68 104
e 68 105
e 69 94
e 69 95
e 69 96
e 69 97
e 69 98
e 69 99
e 69 100
e 69 101
e 69 102
e 69 103
e 69 104
e 69 105
e 70 71
e 70 72
e 70 73
e 70 74
e 70 75
e 70 76
e 70 77
e 70 78
e 70 79
e 70 80
e 70 81
e 71 72
e 71 73
e 71 74
e 71 75
e 71 76
e 71 77
e 71 78
e 71 79
e 71 80
e 71 81
e 72 73
e 72 74
e 72 75
e 72 76
e 72 77
e 72 78
e 72 79
e 72 80
e 72 81
e 73 74
e 73 75
e 73 76
e 73 77
e 73 78
e 73 79
e 73 80
e 73 81
e 74 75
e 74 76
e 74 77
e 74 78
e 74 79
e 74 80
e 74 81
e 75 76
e 75 77
e 75 78
e 75 79
e 75 80
e 75 81
e 76 77
e 76 78
e 76 79
e 76 80
e 76 81
e 77 78
e 77 79
e 77 80
e 77 81
e 78 79
e 78 80
e 78 81
e 79 80
e 79 81
e 80 81
e 82 83
e 82 84
e 82 85
e 82 86
e 82 87
e 82 88
e 82 89
e 82 91
e 82 92
e 82 93
e 83 84
e 83 85
e 83 86
e 83 87
e 83 88
e 83 89
e 83 90
e 83 91
e 83 92
e 83 93
e 84 85
e 84 86
e 84 87
e 84 88
e 84 89
e 84 90
e 84 91
e 84 92
e 84 93
e 85 86
e 85 87
e 85 88
e 85 89
e 85 90
e 85 91
e 85 92
e 85 93
e 86 87
e 86 88
e 86 89
e 86 90
e 86 91
e 86 92
e 86 93
e 87 88
e 87 89
e 87 90
e 87 91
e 87 92
e 87 93
e 88 89
e 88 90
e 88 91
e 88 92
e 88 93
e 89 90
e 89 91
e 89 92
e 89 93
e 90 91
e 90 92
e 90 93
e 91 92
e 91 93
e 92 93
e 94 95
e 94 96
e 94 97
e 94 98
e 94 99
e 94 100
e 94 101
e 94 102
e 94 103
e 94 104
e 94 105
e 95 96
e 95 97
e 95 98
e 95 99
e 95 100
e 95 101
e 95 102
e 95 103
e 95 104
e 95 105
e 96 97
e 96 98
e 96 99
e 96 100
e 96 101
e 96 102
e 96 103
e 96 104
e 96 105
e 97 98
e 97 99
e 97 100
e 97 101
e 97 102
e 97 103
e 97 104
e 97 105
e 98 99
e 98 100
e 98 101
e 98 102
e 98 103
e 98 104
e 98 105
e 99 100
e 99 101
e 99 102
e 99 103
e 99 104
e 100 101
e 100 102
e 100 103
e 100 104
e 100 105
e 101 102
e 101 103
e 101 104
e 101 105
e 102 103
e 102 104
e 102 105
e 103 104
e 103 105
e 104 105
l 12
t 73 82
